c This is an instance of the heur track of PACE 2020 Challenge, see https://pacechallenge.org/2020/ 
c TYPE: infrastracture 
c ORIGIN: https://gitlab.com/rvb/mwcarp-ob 
c DESCRIPTION: a road network from the Ob generator by René van Bevern, Christian Komusiewicz, and Manuel Sorge (cities that are divided into several components by a river) 
p tdp 195 342
10 26
10 11
10 9
10 25
26 25
26 27
26 41
11 27
11 12
13 14
13 12
13 29
14 30
14 15
22 23
22 7
22 21
22 38
23 9
23 38
23 39
23 8
23 24
27 28
27 42
27 41
27 12
28 12
28 29
28 43
33 34
33 32
33 18
33 50
34 3
34 35
45 46
45 30
45 44
45 29
45 54
46 15
46 47
46 69
49 32
49 50
49 48
49 56
32 31
50 57
50 51
57 58
57 56
55 71
55 48
55 56
71 83
68 54
68 69
68 80
68 67
54 53
73 74
73 72
73 85
74 86
74 75
84 72
84 83
84 85
94 93
94 106
94 95
93 92
93 105
107 108
107 96
107 125
108 109
108 97
108 126
109 98
109 127
125 142
125 124
125 126
125 141
142 160
142 143
132 115
132 131
132 133
132 149
115 114
115 116
131 114
131 148
136 153
136 119
136 137
136 135
153 152
153 170
153 154
145 129
145 144
145 164
145 146
129 111
129 128
129 130
147 148
147 113
147 182
147 146
148 166
148 149
152 151
152 135
152 168
152 169
151 150
151 168
151 134
154 171
154 137
154 155
171 170
171 188
171 172
161 162
161 160
161 177
162 143
162 178
164 165
164 163
164 180
165 146
165 181
146 130
166 183
166 167
186 168
186 169
186 187
186 185
168 150
168 184
168 185
169 170
187 170
187 188
1 17
1 2
17 18
17 31
2 18
2 3
3 4
4 5
4 19
5 20
5 6
20 19
20 36
20 21
6 21
6 7
21 37
7 8
8 9
9 24
24 40
24 25
25 40
12 29
29 44
29 30
15 16
16 47
47 70
31 48
19 35
36 35
36 37
37 38
37 61
38 39
38 62
39 40
40 63
40 41
41 64
41 42
42 43
42 65
44 43
44 53
35 51
51 59
63 62
63 64
64 65
43 52
53 52
53 67
69 81
69 70
70 82
52 66
67 66
67 79
58 59
59 60
59 75
60 61
60 76
61 62
65 66
66 78
78 79
81 80
81 82
86 85
86 87
75 76
75 87
76 88
76 77
87 88
87 101
88 89
77 89
79 80
83 99
99 100
99 110
85 100
100 112
100 101
101 114
101 102
89 102
89 90
102 116
90 91
90 118
91 103
91 92
118 117
118 135
118 119
103 104
103 120
92 104
92 105
105 104
105 106
105 122
105 123
106 123
95 96
96 97
97 98
112 111
112 113
112 130
114 113
116 117
116 133
104 121
121 120
121 138
121 122
122 123
123 139
123 140
123 124
126 127
127 143
110 128
110 111
128 144
117 134
133 150
133 134
134 135
119 120
120 137
137 138
138 139
138 156
139 140
139 156
140 158
124 141
141 158
141 159
144 163
149 150
150 167
158 175
158 159
158 157
159 160
160 176
182 181
182 183
167 184
155 172
155 156
172 156
172 188
172 189
172 173
156 157
156 173
157 174
174 173
174 191
174 175
175 192
175 176
177 176
177 178
177 194
178 195
163 179
180 181
180 179
183 184
184 185
188 189
189 190
173 190
190 191
191 192
192 193
176 193
194 193
194 195
